25231,18333,25500,14873,8968,7748,21138,20561,6135,982,20847,19333,16461,10176,21030,16161,16163,2225,14424,21663,5176,11682,10052,5455,3700,5210,20971,10839,15516,3741,16225,15343,7784,2657,14213,17860,11686,13711,8078,10535,17883,14428,10660,18112,25336,5730,25549,18252,21634,18698,2787,25169,2244,2428,26067,7866,19210,14014,11559,4804,2262,16478,5796,19879,25231